peakDumbCharging = 11100; 
Machine = anon_enum(16); 
machineSpeed = [3700,3700,3700,3700,3700,3700,3700,3700,3700,3700,3700,3700,3700,3700,3700,3700]; 
machineLoad = [3700,3700,3700,3700,3700,3700,3700,3700,3700,3700,3700,3700,3700,3700,3700,3700]; 
Car = anon_enum(10); 
demandCar = [19120,1840,5400,15840,17040,4040,8320,11720,9240,5800]; 
arrivalCar = [75,71,65,61,55,53,51,49,47,44]; 
departureCar = [82,73,68,67,62,57,55,54,52,47]; 
